103571
29,10,1,13,37,18,21,48,19,24,31,65,50,4,63,39,52,41,78,69,25,42,15,61,6,79,30,35,28,8,83,53,59,68,44,22,5,82,32,74,40,75,11,33,27,16,38,2,55,23,12,3,43,57,34,49,47,60,81,72,51,7,56,17,58,77,9,20,67,76,26,70,14,62,80,36,66,71,54,46,45,73,64,29